
Model name: lp
                x1       x2 
Minimize       0.6      2.1 
r_1           1000     2000 >=     3000
r_2             25      100 >=      100
r_3              1        2 >=        3
r_4              1        4 >=        4
Type          Real     Real 
upbo       Infinite Infinite
lowbo            0        0 

Value of objective function: 2.25

Actual values of the variables:
x1                   2
x2                   0.5

Actual values of the constraints:
r_1                  3000
r_2                  100
r_3                  3
r_4                  4

Dual values with from - till limits:
r_1                   0.00015      3000     4000
r_2                     0.018       100      150
r_3                         0   -1e+024   1e+024
r_4                         0   -1e+024   1e+024
x1                          0   -1e+024   1e+024
x2                          0   -1e+024   1e+024
